clingo version 5.5.2
Reading from ...nt/beegfs/home/jubruns/encoding/mif.lp ...
Solving...
Answer: 1
move(1,(1,9),(2,9),2) move(1,(2,9),(3,9),3) move(1,(3,9),(4,9),5) move(1,(4,9),(5,9),6) move(1,(5,9),(6,9),7) move(1,(6,9),(7,9),8) move(1,(7,9),(7,8),9) move(1,(7,8),(8,8),10) move(1,(8,8),(9,8),11) move(1,(9,8),(10,8),12) move(1,(10,8),(10,7),14) move(1,(10,7),(11,7),15) move(1,(11,7),(12,7),16) move(1,(12,7),(13,7),17) move(1,(13,7),(14,7),18) move(1,(14,7),(15,7),19) move(1,(15,7),(16,7),20) move(2,(2,9),(2,8),1) move(2,(2,8),(2,7),2) move(2,(2,7),(1,7),3) move(2,(1,7),(1,6),4) move(2,(1,6),(1,5),5) move(2,(1,5),(1,4),6) move(2,(1,4),(2,4),7) move(2,(2,4),(2,3),8) move(2,(2,3),(1,3),10) move(2,(1,3),(1,4),11) move(2,(1,4),(1,5),12) move(2,(1,5),(1,6),13) move(2,(1,6),(2,6),15) move(2,(2,6),(3,6),16) move(2,(3,6),(3,5),17) move(2,(3,5),(3,6),18) move(2,(3,6),(2,6),19) move(2,(2,6),(2,7),20) move(3,(3,9),(3,8),1) move(3,(3,8),(3,7),2) move(3,(3,7),(4,7),3) move(3,(4,7),(4,6),4) move(3,(4,6),(4,5),5) move(3,(4,5),(4,4),6) move(3,(4,4),(4,3),8) move(3,(4,3),(4,2),9) move(3,(4,2),(5,2),10) move(3,(5,2),(5,3),11) move(3,(5,3),(6,3),12) move(3,(6,3),(6,2),13) move(3,(6,2),(6,3),14) move(3,(6,3),(6,2),15) move(3,(6,2),(6,3),16) move(3,(6,3),(6,4),17) move(3,(6,4),(5,4),18) move(3,(5,4),(4,4),19) move(3,(4,4),(3,4),20) move(4,(4,9),(5,9),1) move(4,(5,9),(5,8),2) move(4,(5,8),(6,8),3) move(4,(6,8),(6,7),4) move(4,(6,7),(6,6),5) move(4,(6,6),(7,6),6) move(4,(7,6),(8,6),7) move(4,(8,6),(9,6),8) move(4,(9,6),(10,6),9) move(4,(10,6),(10,5),10) move(4,(10,5),(11,5),12) move(4,(11,5),(12,5),13) move(4,(12,5),(13,5),14) move(4,(13,5),(14,5),15) move(4,(14,5),(15,5),16) move(4,(15,5),(16,5),17) move(4,(16,5),(16,4),18) move(4,(16,4),(17,4),19) move(4,(17,4),(18,4),20) move(5,(5,9),(5,8),1) move(5,(5,8),(4,8),2) move(5,(4,8),(4,7),4) move(5,(4,7),(5,7),5) move(5,(5,7),(6,7),6) move(5,(6,7),(6,6),7) move(5,(6,6),(5,6),8) move(5,(5,6),(6,6),9) move(5,(6,6),(6,7),10) move(5,(6,7),(5,7),11) move(5,(5,7),(6,7),12) move(5,(6,7),(6,8),13) move(5,(6,8),(7,8),14) move(5,(7,8),(7,7),15) move(5,(7,7),(7,6),16) move(5,(7,6),(6,6),17) move(5,(6,6),(5,6),18) move(5,(5,6),(4,6),19) move(5,(4,6),(3,6),20)
SATISFIABLE

Models       : 1+
Calls        : 1
Time         : 42.147s (Solving: 39.91s 1st Model: 39.91s Unsat: 0.00s)
CPU Time     : 42.094s

Choices      : 4103424  (Domain: 38018)
Conflicts    : 80044    (Analyzed: 80044)
Restarts     : 238      (Average: 336.32 Last: 49)
Model-Level  : 7851.0  
Problems     : 1        (Average Length: 0.00 Splits: 0)
Lemmas       : 86646    (Deleted: 73181)
  Binary     : 2104     (Ratio:   2.43%)
  Ternary    : 1494     (Ratio:   1.72%)
  Conflict   : 80044    (Average Length:  217.3 Ratio:  92.38%) 
  Loop       : 6602     (Average Length:  484.6 Ratio:   7.62%) 
  Other      : 0        (Average Length:    0.0 Ratio:   0.00%) 
Backjumps    : 80044    (Average: 43.23 Max: 14025 Sum: 3460027)
  Executed   : 80044    (Average: 43.23 Max: 14025 Sum: 3460027 Ratio: 100.00%)
  Bounded    : 0        (Average:  0.00 Max:   0 Sum:      0 Ratio:   0.00%)

Rules        : 1273440  (Original: 1346585)
  Choice     : 17114   
  Heuristic  : 699615   (Original: 937498)
Atoms        : 262304   (Original: 247594 Auxiliary: 14710)
Bodies       : 359467   (Original: 271893)
  Count      : 109      (Original: 35489)
Equivalences : 381965   (Atom=Atom: 32979 Body=Body: 32960 Other: 316026)
Tight        : No       (SCCs: 5 Non-Hcfs: 0 Nodes: 99448 Gammas: 0)
Variables    : 331658   (Eliminated:    0 Frozen: 116321)
Constraints  : 1000541  (Binary:  75.0% Ternary:  17.2% Other:   7.8%)

